;symbolic execution tree
(push)
(assert (le x0 soot.MethodSource))
(check-sat)
(push)
(assert (le x5 java.lang.StringBuffer))
(check-sat)
(pop)
(push)
(assert (not (le x5 java.lang.StringBuffer)))
(check-sat)
(push)
(assert (le x0 soot.MethodSource))
(check-sat)
(pop)
(push)
(assert (not (le x0 soot.MethodSource)))
(check-sat)
(pop)
(pop)
(pop)
(push)
(assert (not (le x0 soot.MethodSource)))
(check-sat)
(push)
(assert (le x7 java.lang.String))
(check-sat)
(push)
(assert (le x5 java.io.File))
(check-sat)
(push)
(assert (le x3 java.util.zip.ZipEntry))
(check-sat)
(pop)
(push)
(assert (not (le x3 java.util.zip.ZipEntry)))
(check-sat)
(push)
(assert (le x4 java.io.InputStream))
(check-sat)
(pop)
(push)
(assert (not (le x4 java.io.InputStream)))
(check-sat)
(pop)
(push)
(assert (le x7 java.lang.String))
(check-sat)
(pop)
(push)
(assert (not (le x7 java.lang.String)))
(check-sat)
(pop)
(pop)
(pop)
(push)
(assert (not (le x5 java.io.File)))
(check-sat)
(pop)
(push)
(assert (le x6 java.lang.StringBuffer))
(check-sat)
(push)
(assert (le x0 soot.MethodSource))
(check-sat)
(pop)
(push)
(assert (not (le x0 soot.MethodSource)))
(check-sat)
(pop)
(pop)
(push)
(assert (not (le x6 java.lang.StringBuffer)))
(check-sat)
(push)
(assert (le x5 java.lang.String))
(check-sat)
(push)
(assert (le x6 java.lang.StringBuffer))
(check-sat)
(pop)
(push)
(assert (not (le x6 java.lang.StringBuffer)))
(check-sat)
(pop)
(pop)
(push)
(assert (not (le x5 java.lang.String)))
(check-sat)
(push)
(assert (le x6 java.lang.StringBuffer))
(check-sat)
(pop)
(push)
(assert (not (le x6 java.lang.StringBuffer)))
(check-sat)
(pop)
(pop)
(pop)
(push)
(assert (le x2 java.io.DataInputStream))
(check-sat)
(push)
(assert (le x0 soot.MethodSource))
(check-sat)
(pop)
(push)
(assert (not (le x0 soot.MethodSource)))
(check-sat)
(pop)
(push)
(assert (le x3 java.lang.String))
(check-sat)
(pop)
(push)
(assert (not (le x3 java.lang.String)))
(check-sat)
(pop)
(pop)
(push)
(assert (not (le x2 java.io.DataInputStream)))
(check-sat)
(push)
(assert (le x6 java.lang.String))
(check-sat)
(push)
(assert (le x6 java.lang.String))
(check-sat)
(pop)
(push)
(assert (not (le x6 java.lang.String)))
(check-sat)
(pop)
(pop)
(push)
(assert (not (le x6 java.lang.String)))
(check-sat)
(pop)
(pop)
(push)
(assert (le x2 java.util.zip.ZipEntry))
(check-sat)
(push)
(assert (le x7 java.lang.String))
(check-sat)
(pop)
(push)
(assert (not (le x7 java.lang.String)))
(check-sat)
(pop)
(push)
(assert (le x7 java.lang.String))
(check-sat)
(pop)
(push)
(assert (not (le x7 java.lang.String)))
(check-sat)
(pop)
(push)
(assert (le x3 java.io.DataInputStream))
(check-sat)
(push)
(assert (le x0 soot.MethodSource))
(check-sat)
(pop)
(push)
(assert (not (le x0 soot.MethodSource)))
(check-sat)
(pop)
(pop)
(push)
(assert (not (le x3 java.io.DataInputStream)))
(check-sat)
(pop)
(pop)
(push)
(assert (not (le x2 java.util.zip.ZipEntry)))
(check-sat)
(pop)
(push)
(assert (le x4 java.lang.StringBuffer))
(check-sat)
(push)
(assert (le x2 java.lang.String))
(check-sat)
(pop)
(push)
(assert (not (le x2 java.lang.String)))
(check-sat)
(pop)
(push)
(assert (le x2 java.lang.String))
(check-sat)
(pop)
(push)
(assert (not (le x2 java.lang.String)))
(check-sat)
(pop)
(pop)
(push)
(assert (not (le x4 java.lang.StringBuffer)))
(check-sat)
(pop)
(push)
(assert (le x1 java.util.zip.ZipEntry))
(check-sat)
(push)
(assert (le x5 java.util.zip.ZipEntry))
(check-sat)
(push)
(assert (le x3 soot.coffi.CONSTANT_Utf8_info))
(check-sat)
(pop)
(push)
(assert (not (le x3 soot.coffi.CONSTANT_Utf8_info)))
(check-sat)
(pop)
(pop)
(push)
(assert (not (le x5 java.util.zip.ZipEntry)))
(check-sat)
(pop)
(pop)
(push)
(assert (not (le x1 java.util.zip.ZipEntry)))
(check-sat)
(pop)
(push)
(assert (le x1 java.util.zip.ZipEntry))
(check-sat)
(push)
(assert (le x7 java.lang.String))
(check-sat)
(pop)
(push)
(assert (not (le x7 java.lang.String)))
(check-sat)
(pop)
(push)
(assert (le x0 soot.MethodSource))
(check-sat)
(pop)
(push)
(assert (not (le x0 soot.MethodSource)))
(check-sat)
(pop)
(pop)
(push)
(assert (not (le x1 java.util.zip.ZipEntry)))
(check-sat)
(pop)
(pop)
(push)
(assert (not (le x7 java.lang.String)))
(check-sat)
(pop)
(push)
(assert (le x2 java.io.File))
(check-sat)
(pop)
(push)
(assert (not (le x2 java.io.File)))
(check-sat)
(push)
(assert (le x1 java.lang.String))
(check-sat)
(push)
(assert (le x2 java.io.File))
(check-sat)
(pop)
(push)
(assert (not (le x2 java.io.File)))
(check-sat)
(push)
(assert (le x3 java.util.zip.ZipEntry))
(check-sat)
(pop)
(push)
(assert (not (le x3 java.util.zip.ZipEntry)))
(check-sat)
(pop)
(pop)
(pop)
(push)
(assert (not (le x1 java.lang.String)))
(check-sat)
(pop)
(push)
(assert (le x6 java.lang.String))
(check-sat)
(pop)
(push)
(assert (not (le x6 java.lang.String)))
(check-sat)
(pop)
(push)
(assert (le x5 java.lang.String))
(check-sat)
(pop)
(push)
(assert (not (le x5 java.lang.String)))
(check-sat)
(push)
(assert (le x1 java.lang.String))
(check-sat)
(pop)
(push)
(assert (not (le x1 java.lang.String)))
(check-sat)
(pop)
(pop)
(push)
(assert (le x5 java.lang.String))
(check-sat)
(pop)
(push)
(assert (not (le x5 java.lang.String)))
(check-sat)
(pop)
(push)
(assert (le x4 java.io.DataInputStream))
(check-sat)
(push)
(assert (le x5 java.lang.StringBuffer))
(check-sat)
(pop)
(push)
(assert (not (le x5 java.lang.StringBuffer)))
(check-sat)
(pop)
(push)
(assert (le x5 java.io.File))
(check-sat)
(pop)
(push)
(assert (not (le x5 java.io.File)))
(check-sat)
(pop)
(pop)
(push)
(assert (not (le x4 java.io.DataInputStream)))
(check-sat)
(pop)
(pop)
(push)
(assert (le x0 soot.MethodSource))
(check-sat)
(pop)
(push)
(assert (not (le x0 soot.MethodSource)))
(check-sat)
(push)
(assert (le x2 java.util.List))
(check-sat)
(push)
(assert (le x6 java.io.File))
(check-sat)
(pop)
(push)
(assert (not (le x6 java.io.File)))
(check-sat)
(pop)
(pop)
(push)
(assert (not (le x2 java.util.List)))
(check-sat)
(pop)
(pop)
(push)
(assert (le x6 java.lang.String))
(check-sat)
(push)
(assert (le x6 java.lang.String))
(check-sat)
(push)
(assert (le x0 soot.MethodSource))
(check-sat)
(pop)
(push)
(assert (not (le x0 soot.MethodSource)))
(check-sat)
(push)
(assert (le x5 java.lang.String))
(check-sat)
(pop)
(push)
(assert (not (le x5 java.lang.String)))
(check-sat)
(pop)
(pop)
(pop)
(push)
(assert (not (le x6 java.lang.String)))
(check-sat)
(pop)
(push)
(assert (le x2 java.util.zip.ZipEntry))
(check-sat)
(push)
(assert (le x0 soot.MethodSource))
(check-sat)
(pop)
(push)
(assert (not (le x0 soot.MethodSource)))
(check-sat)
(pop)
(pop)
(push)
(assert (not (le x2 java.util.zip.ZipEntry)))
(check-sat)
(pop)
(pop)
(push)
(assert (not (le x6 java.lang.String)))
(check-sat)
(push)
(assert (le x1 java.lang.String))
(check-sat)
(pop)
(push)
(assert (not (le x1 java.lang.String)))
(check-sat)
(pop)
(pop)
(push)
(assert (le x5 java.lang.String))
(check-sat)
(pop)
(push)
(assert (not (le x5 java.lang.String)))
(check-sat)
(pop)
(push)
(assert (le x7 soot.util.HashChain))
(check-sat)
(push)
(assert (le x1 java.io.DataInputStream))
(check-sat)
(pop)
(push)
(assert (not (le x1 java.io.DataInputStream)))
(check-sat)
(pop)
(push)
(assert (le x7 soot.util.HashChain))
(check-sat)
(push)
(assert (le x7 soot.util.HashChain))
(check-sat)
(pop)
(push)
(assert (not (le x7 soot.util.HashChain)))
(check-sat)
(pop)
(pop)
(push)
(assert (not (le x7 soot.util.HashChain)))
(check-sat)
(pop)
(push)
(assert (le x3 java.io.File))
(check-sat)
(push)
(assert (le x4 java.util.zip.ZipEntry))
(check-sat)
(pop)
(push)
(assert (not (le x4 java.util.zip.ZipEntry)))
(check-sat)
(pop)
(pop)
(push)
(assert (not (le x3 java.io.File)))
(check-sat)
(pop)
(push)
(assert (le x7 soot.util.HashChain))
(check-sat)
(pop)
(push)
(assert (not (le x7 soot.util.HashChain)))
(check-sat)
(pop)
(pop)
(push)
(assert (not (le x7 soot.util.HashChain)))
(check-sat)
(push)
(assert (le x7 soot.util.HashChain))
(check-sat)
(pop)
(push)
(assert (not (le x7 soot.util.HashChain)))
(check-sat)
(pop)
(push)
(assert (le x2 java.lang.String))
(check-sat)
(pop)
(push)
(assert (not (le x2 java.lang.String)))
(check-sat)
(pop)
(push)
(assert (le x7 soot.util.HashChain))
(check-sat)
(pop)
(push)
(assert (not (le x7 soot.util.HashChain)))
(check-sat)
(pop)
(push)
(assert (le x6 java.lang.String))
(check-sat)
(pop)
(push)
(assert (not (le x6 java.lang.String)))
(check-sat)
(push)
(assert (le x4 java.io.File))
(check-sat)
(push)
(assert (le x7 soot.util.HashChain))
(check-sat)
(pop)
(push)
(assert (not (le x7 soot.util.HashChain)))
(check-sat)
(pop)
(pop)
(push)
(assert (not (le x4 java.io.File)))
(check-sat)
(pop)
(pop)
(pop)
(pop)
